n = 8;

personas = ["jose", "julian", "diana", "juan", "david", "claudia", "edgar", "mario"];

num_separate = 4;
separate = array2d(1..num_separate, 1..2, [
    1, 2,   % jose y julian
    2, 3,   % julian y diana
    3, 4,   % diana y juan
    1, 3    % jose y diana
]);

num_next = 2;
next = array2d(1..num_next, 1..2, [
    5, 6,   % david y claudia juntos
    8, 7    % mario y edgar juntos
]);

num_distance = 1;
distance = array2d(1..num_distance, 1..3, [
    1, 4, 2,   % jose y juan máx 2
]);